CMD:
./solvers/bin/cadical --plain --no-reduce -t 1600 ./data/cnfs//oski15a14b12s/oski15a14b12s.41.cnf

c --- [ banner ] -------------------------------------------------------------
c 
c CaDiCaL SAT Solver
c Copyright (c) 2016-2024
c A. Biere, M. Fleury, N. Froleyks, K. Fazekas, F. Pollitt, T. Faller
c JKU Linz, University of Freiburg, TU Wien
c 
c Version 2.1.3 5296d3d2a9bf48c154ab2acb5e44625776d821bf
c g++ (Gentoo 12.3.1_p20230526 p2) 12.3.1 20230526 -Wall -Wextra -O3 -DNDEBUG
c Sat Aug 9 07:26:21 PDT 2025 Linux cedar2.int.cedar.computecanada.ca 5.14.0-362.24.2.el9_3.x86_64 x86_64
c 
c --- [ limit ] --------------------------------------------------------------
c 
c setting time limit to 1600 seconds real time (due to '-t 1600')
c 
c --- [ parsing input ] ------------------------------------------------------
c 
c reading DIMACS file from './data/cnfs//oski15a14b12s/oski15a14b12s.41.cnf'
c opening file to read './data/cnfs//oski15a14b12s/oski15a14b12s.41.cnf'
c found 'p cnf 1845893 5395689' header
c parsed 5395689 clauses in 0.89 seconds process time
c 
c --- [ options ] ------------------------------------------------------------
c 
c   --compact=false                (different from default 'true')
c   --decompose=false              (different from default 'true')
c   --deduplicate=false            (different from default 'true')
c   --elim=false                   (different from default 'true')
c   --probe=false                  (different from default 'true')
c   --reduce=false                 (different from default 'true')
c   --subsume=false                (different from default 'true')
c   --ternary=false                (different from default 'true')
c   --transred=false               (different from default 'true')
c   --vivify=false                 (different from default 'true')
c 
c --- [ solving ] ------------------------------------------------------------
c 
c time measured in process time since initialization
c 
c  seconds   reductions  redundant   irredundant
c          MB    restarts       trail         variables
c           level   conflicts       glue            remaining
c 
c *  0.90 811  0 0   0    0    0  0% 0 5129730 1627639 88%
c {  1.21 825  0 0   0    0    0  0% 0 5129730 1627639 88%
c }  2.74 827 1548 0 124 1000  954 20% 3 5129730 1627639 88%
c [  2.74 827  0 0 124 1000  954  0% 0 5129730 1627639 88%
c O  3.07 827 2353 0 124 1002  956 47% 43 5129730 1627639 88%
c ]  4.01 829 2286 0 125 3002 2579 43% 26 5129730 1627639 88%
c {  4.01 829 1548 0 125 3002 2579 20% 3 5129730 1627639 88%
c F  4.01 829 1547 0 126 3003 2580 20% 3 5129730 1627639 88%
c #  7.96 832 729 0 599 6005 5373 17% 4 5129730 1627639 88%
c }  8.77 832 648 0 741 7003 6279 17% 4 5129730 1627639 88%
c [  8.77 832 2286 0 741 7003 6279 43% 26 5129730 1627639 88%
c i  8.87 832 2133 0 742 7250 6505 40% 23 5129730 1627625 88%
c i  9.06 833 1735 0 742 8010 7014 34% 19 5129730 1627619 88%
c i  9.08 833 1733 0 742 8046 7035 34% 19 5129730 1627608 88%
c i  9.14 833 1740 0 742 8109 7085 34% 19 5129730 1627605 88%
c i  9.14 833 1740 0 742 8110 7085 34% 19 5129730 1627604 88%
c i  9.14 833 1741 0 742 8111 7085 34% 19 5129730 1627603 88%
c i  9.14 833 1741 0 742 8112 7085 34% 19 5129730 1627602 88%
c i  9.14 833 1741 0 742 8113 7085 34% 19 5129730 1627601 88%
c i  9.14 833 1742 0 742 8114 7085 34% 19 5129730 1627600 88%
c 
c  seconds     reductions  redundant    irredundant
c          MB      restarts       trail          variables
c            level    conflicts       glue             remaining
c 
c i  9.14 833 1742 0 742 8115 7085 34% 19 5129730 1627599 88%
c i  9.14 833 1742 0 742 8116 7085 34% 19 5129730 1627598 88%
c i  9.14 833 1743 0 742 8117 7085 34% 19 5129730 1627597 88%
c i  9.14 833 1743 0 742 8118 7085 34% 19 5129730 1627596 88%
c i  9.14 833 1743 0 742 8119 7085 34% 19 5129730 1627595 88%
c i  9.14 833 1744 0 742 8120 7085 34% 19 5129730 1627594 88%
c i  9.14 833 1744 0 742 8121 7085 34% 19 5129730 1627593 88%
c i  9.14 833 1744 0 742 8122 7085 34% 19 5129730 1627592 88%
c i  9.14 833 1745 0 742 8123 7085 34% 19 5129730 1627591 88%
c i  9.15 833 1745 0 742 8124 7085 34% 19 5129730 1627590 88%
c i  9.15 833 1746 0 742 8125 7085 34% 19 5129730 1627589 88%
c i  9.15 833 1746 0 742 8126 7085 34% 19 5129730 1627588 88%
c i  9.15 833 1746 0 742 8127 7085 34% 19 5129730 1627587 88%
c i  9.15 833 1747 0 742 8128 7085 34% 19 5129730 1627586 88%
c i  9.15 833 1747 0 742 8129 7085 34% 19 5129730 1627585 88%
c i  9.15 833 1747 0 742 8130 7085 34% 19 5129730 1627584 88%
c i  9.15 833 1748 0 742 8131 7085 34% 19 5129730 1627583 88%
c i  9.15 833 1748 0 742 8132 7085 34% 19 5129730 1627582 88%
c i  9.15 833 1748 0 742 8133 7085 34% 19 5129730 1627581 88%
c i  9.15 833 1749 0 742 8134 7085 34% 19 5129730 1627580 88%
c 
c  seconds     reductions  redundant    irredundant
c          MB      restarts       trail          variables
c            level    conflicts       glue             remaining
c 
c i  9.15 833 1749 0 742 8135 7085 34% 19 5129730 1627579 88%
c i  9.15 833 1750 0 742 8136 7085 34% 19 5129730 1627578 88%
c i  9.15 833 1750 0 742 8137 7085 34% 19 5129730 1627577 88%
c i  9.15 833 1750 0 742 8138 7085 34% 19 5129730 1627576 88%
... skipped 2605 lines ...
c i 124.66 955 1421 0 11050 185587 139950 29% 20 4294914 1502560 81%
c i 124.66 955 1421 0 11050 185588 139950 29% 20 4294914 1502559 81%
c i 124.66 955 1422 0 11050 185589 139950 29% 20 4294914 1502558 81%
c i 124.66 955 1422 0 11050 185590 139950 29% 20 4294914 1502557 81%
c i 124.66 955 1422 0 11050 185591 139950 29% 20 4294914 1502556 81%
c i 124.66 955 1422 0 11050 185592 139950 29% 20 4294914 1502555 81%
c i 124.66 955 1422 0 11050 185593 139950 29% 20 4294914 1502554 81%
c i 124.66 955 1422 0 11050 185594 139950 29% 20 4294914 1502553 81%
c i 124.66 955 1422 0 11050 185595 139950 29% 20 4294914 1502552 81%
c i 124.66 955 1422 0 11050 185596 139950 29% 20 4294914 1502551 81%
c i 124.67 955 1422 0 11050 185597 139950 29% 20 4294914 1502550 81%
c 
c  seconds      reductions       redundant     irredundant
c           MB       restarts            trail          variables
c             level       conflicts          glue             remaining
c 
c i 124.67 955 1423 0 11050 185616 139959 29% 20 4294914 1502548 81%
c i 124.67 955 1423 0 11050 185617 139959 29% 20 4294914 1502546 81%
c i 124.67 955 1423 0 11050 185618 139959 29% 20 4294914 1502544 81%
c i 124.67 955 1423 0 11050 185619 139959 29% 20 4294914 1502542 81%
c i 124.68 955 1423 0 11050 185630 139965 29% 20 4294914 1502541 81%
c i 124.68 955 1424 0 11050 185637 139967 29% 20 4294914 1502539 81%
c i 124.68 955 1424 0 11050 185638 139967 29% 20 4294914 1502538 81%
c i 124.68 955 1424 0 11050 185639 139967 29% 20 4294914 1502537 81%
c i 124.68 955 1424 0 11050 185640 139967 29% 20 4294914 1502536 81%
c i 124.68 955 1424 0 11050 185641 139967 29% 20 4294914 1502535 81%
c i 124.68 955 1424 0 11050 185642 139967 29% 20 4294914 1502534 81%
c i 124.68 955 1424 0 11050 185643 139967 29% 20 4294914 1502533 81%
c i 124.68 955 1424 0 11050 185644 139967 29% 20 4294914 1502532 81%
c i 124.68 955 1424 0 11050 185645 139967 29% 20 4294914 1502531 81%
c i 124.68 955 1424 0 11050 185646 139967 29% 20 4294914 1502514 81%
c i 126.88 955 1614 0 11051 189224 142405 31% 23 4294914 1502496 81%
c i 127.01 955 1611 0 11051 189334 142496 31% 23 4294914 1502493 81%
c i 127.07 955 1610 0 11051 189391 142522 31% 23 4294914 1502491 81%
c i 127.09 955 1609 0 11052 189438 142538 31% 23 4294914 1502487 81%
c i 127.14 955 1607 0 11052 189503 142590 31% 23 4294914 1502476 81%
c 
c  seconds      reductions       redundant     irredundant
c           MB       restarts            trail          variables
c             level       conflicts          glue             remaining
c 
c i 127.22 955 1605 0 11052 189587 142663 31% 23 4294914 1502470 81%
c B 127.56 955 1594 0 11052 190045 142969 31% 23 4294914 1502470 81%
c i 129.57 955 1507 0 11055 193594 145315 31% 22 4294914 1502405 81%
c ] 129.65 955 1503 0 11055 193779 145342 31% 22 4294914 1498655 81%
c 0 129.65 955 1503 0 11055 193779 145342 31% 22 4294914 1498655 81%
c 
c --- [ result ] -------------------------------------------------------------
c 
s UNSATISFIABLE
c 
c --- [ run-time profiling ] -------------------------------------------------
c 
c process time taken by individual solving procedures
c (percentage relative to process time for solving)
c 
c       128.76  100.00% search
c        63.32   49.18% stable
c        58.81   45.67% unstable
c         6.32    4.91% walk
c         0.89    0.69% parse
c         0.31    0.24% lucky
c         0.00    0.00% simplify
c   =================================
c       128.76   99.31% solve
c 
c last line shows process time for solving
c (percentage relative to total process time)
c 
c --- [ statistics ] ---------------------------------------------------------
c 
c chronological:            100304        51.76 %  of conflicts
c conflicts:                193779      1504.98    per second
c decisions:               5054236     39253.67    per second
c fixed:                    347238        18.81 %  of all variables
c learned:                  175264        90.45 %  per conflict
c learned_lits:            9531091       100.00 %  learned literals
c minimized:                     0         0.00 %  learned literals
c shrunken:                 896731         9.41 %  learned literals
c minishrunken:             818917         8.59 %  learned literals
c otfs:                       1331         0.69 %  of conflict
c propagations:         1186938505         9.22 M  per second
c rephased:                     19     10198.89    interval
c restarts:                  11055        17.53    interval
c stabilizing:                   4        56.13 %  of conflicts
c subsumed:                  13282         0.25 %  of all clauses
c strengthened:               1319         0.02 %  of all clauses
c walked:                        5     38755.80    interval
c 
c seconds are measured in process time for solving
c 
c --- [ resources ] ----------------------------------------------------------
c 
c total process time since initialization:       129.65    seconds
c total real time since initialization:          130.10    seconds
c maximum resident set size of process:         1127.64    MB
c 
c --- [ shutting down ] ------------------------------------------------------
c 
c exit 20
